Version identifier: 20.1.0.0 | 2020-11-10 | 9bedb6d68
CPXPARAM_Threads                                 1
CPXPARAM_TimeLimit                               7200
CPXPARAM_MIP_Tolerances_MIPGap                   0
Generic callback                                 0x60
1 of 1 MIP starts provided solutions.
MIP start 'm1' defined initial solution with objective 2888.4921.
Tried aggregator 1 time.
Reduced MIP has 800801 rows, 801001 columns, and 2401000 nonzeros.
Reduced MIP has 1000 binaries, 0 generals, 0 SOSs, and 0 indicators.
Presolve time = 0.83 sec. (759.66 ticks)
Probing time = 0.10 sec. (100.05 ticks)
Tried aggregator 1 time.
Reduced MIP has 800801 rows, 801001 columns, and 2401000 nonzeros.
Reduced MIP has 1000 binaries, 0 generals, 0 SOSs, and 0 indicators.
Presolve time = 0.80 sec. (746.68 ticks)
Probing time = 0.10 sec. (100.05 ticks)
MIP emphasis: balance optimality and feasibility.
MIP search method: dynamic search.
Parallel mode: none, using 1 thread.
Root relaxation solution time = 0.23 sec. (308.31 ticks)

        Nodes                                         Cuts/
   Node  Left     Objective  IInf  Best Integer    Best Bound    ItCnt     Gap

*     0+    0                         2888.4921     4368.0000            51.22%
      0     0     2941.7377    14     2888.4921     4368.0000        0   51.22%
      0     2     2941.7377    14     2888.4921     2941.7377        0    1.84%
Elapsed time = 4963.51 sec. (3981361.96 ticks, tree = 0.01 MB, solutions = 1)
      1     3     2939.1528     2     2888.4921     2941.7377    20311    1.84%
      2     4     2938.7624     4     2888.4921     2941.7377    24991    1.84%
      3     5     2938.7887     2     2888.4921     2941.7377    26560    1.84%
      4     6     2938.7345     5     2888.4921     2941.7377    26994    1.84%
      5     7     2936.2937     2     2888.4921     2941.7377    52676    1.84%
      6     8     2938.4331     2     2888.4921     2941.7377   117980    1.84%
      7     9     2938.3550     2     2888.4921     2941.7377   129175    1.84%

User cuts applied:  7

Root node processing (before b&c):
  Real time             = 4963.37 sec. (3981200.80 ticks)
Sequential b&c:
  Real time             = 2236.73 sec. (1365670.19 ticks)
                          ------------
Total (root+branch&cut) = 7200.10 sec. (5346870.99 ticks)
@Parameters: 
is_S_cut                                true
is_add_all_yinF                         true
is_start_value                          true
is_usercut                              true
is_visualization                        false
uc_only_rootnode                        false

data                                    Qi
fn                                      data/Qi/instance_800_1000.csv
mode                                    ZLP
solver                                  cplex

p                                       5
r                                       2

EPS                                     1.0e-06
EPS_vio                                 1.0e-04
beta                                    0.10
gap                                     0.00
nodelimit                               Inf
timelimit                               7200.00


@PrintInfos
ItCnt: 143868
Current gap: 1.84 %
Termination Status: TIME_LIMIT
Primal Status: FEASIBLE_POINT
Solve Time: 7200.10 sec
Objective Value: 2888.492064
Number of Nodes:      8

CutInfo: [phase] num / time (sec) 
ZLP             [phase1]     0 / 0.00 [rLC]     4 / 24.09 [rUC]     2 / 9.48 [sLC]     0 / 0.00 [sUC]     5 / 79.61 
OldSubmodular   [phase1]     0 / 0.00 [rLC]     0 / 0.00 [rUC]     0 / 0.00 [sLC]     0 / 0.00 [sUC]     0 / 0.00 
NewSubmodular   [phase1]     0 / 0.00 [rLC]     0 / 0.00 [rUC]     0 / 0.00 [sLC]     0 / 0.00 [sUC]     0 / 0.00 
PMP             [phase1]     0 / 0.00 [rLC]     5 / 18.94 [rUC]     2 / 6.82 [sLC]     0 / 0.00 [sUC]    19 / 65.32 
Separation Round: [phase1] 0  [rLC] 5  [rUC] 2  [sLC] 0  [sUC] 19
Root Best Bound 2941.737675
Root Best Integer: 2888.492064
Best Bound: 2941.737675
Best Integer: 2888.492064

